(set-info :smt-lib-version 2.6)
(set-info :category "crafted")
(set-logic QF_FF)
(define-sort FF0 () (_ FiniteField 52435875175126190479447740508185965837690552500527637822603658699938581184513))
(declare-fun return_n0_alt () FF0)
(declare-fun mul_n11_alt () FF0)
(declare-fun mul_n25_alt () FF0)
(declare-fun mul_n20_alt () FF0)
(declare-fun mul_n24_alt () FF0)
(declare-fun mul_n23_alt () FF0)
(declare-fun g_n9_alt () FF0)
(declare-fun e_n2_alt () FF0)
(declare-fun mul_n22_alt () FF0)
(declare-fun i_n5_alt () FF0)
(declare-fun mul_n21_alt () FF0)
(declare-fun h_n7_alt () FF0)
(declare-fun a_n10_alt () FF0)
(declare-fun j_n3_alt () FF0)
(declare-fun mul_n19_alt () FF0)
(declare-fun c_n6_alt () FF0)
(declare-fun mul_n18_alt () FF0)
(declare-fun b_n8_alt () FF0)
(declare-fun mul_n17_alt () FF0)
(declare-fun mul_n13_alt () FF0)
(declare-fun mul_n16_alt () FF0)
(declare-fun mul_n14_alt () FF0)
(declare-fun mul_n15_alt () FF0)
(declare-fun d_n4_alt () FF0)
(declare-fun mul_n12_alt () FF0)
(declare-fun f_n1_alt () FF0)
(declare-fun return_n0 () FF0)
(declare-fun mul_n11 () FF0)
(declare-fun mul_n25 () FF0)
(declare-fun mul_n20 () FF0)
(declare-fun mul_n24 () FF0)
(declare-fun mul_n23 () FF0)
(declare-fun g_n9 () FF0)
(declare-fun e_n2 () FF0)
(declare-fun mul_n22 () FF0)
(declare-fun i_n5 () FF0)
(declare-fun mul_n21 () FF0)
(declare-fun h_n7 () FF0)
(declare-fun a_n10 () FF0)
(declare-fun j_n3 () FF0)
(declare-fun mul_n19 () FF0)
(declare-fun c_n6 () FF0)
(declare-fun mul_n18 () FF0)
(declare-fun b_n8 () FF0)
(declare-fun mul_n17 () FF0)
(declare-fun mul_n13 () FF0)
(declare-fun mul_n16 () FF0)
(declare-fun mul_n14 () FF0)
(declare-fun mul_n15 () FF0)
(declare-fun d_n4 () FF0)
(declare-fun mul_n12 () FF0)
(declare-fun f_n1 () FF0)
(assert 
  (let ((let0 (as ff1 FF0)))
  (let ((let1 (as ff52435875175126190479447740508185965837690552500527637822603658699938581184512 FF0)))
  (let ((let2 return_n0_alt))
  (let ((let3 (ff.mul let2 let1)))
  (let ((let4 (ff.add let3 let0)))
  (let ((let5 mul_n11_alt))
  (let ((let6 mul_n25_alt))
  (let ((let7 (ff.mul let6 let5)))
  (let ((let8 (= let7 let4)))
  (let ((let9 mul_n20_alt))
  (let ((let10 (ff.mul let9 let1)))
  (let ((let11 (ff.add let10 let0)))
  (let ((let12 mul_n24_alt))
  (let ((let13 (ff.mul let12 let11)))
  (let ((let14 (= let13 let6)))
  (let ((let15 mul_n23_alt))
  (let ((let16 (ff.mul let15 let1)))
  (let ((let17 (ff.add let16 let0)))
  (let ((let18 g_n9_alt))
  (let ((let19 (ff.mul let18 let1)))
  (let ((let20 (ff.add let19 let0)))
  (let ((let21 (ff.mul let20 let17)))
  (let ((let22 (= let21 let12)))
  (let ((let23 e_n2_alt))
  (let ((let24 mul_n22_alt))
  (let ((let25 (ff.mul let24 let23)))
  (let ((let26 (= let25 let15)))
  (let ((let27 i_n5_alt))
  (let ((let28 mul_n21_alt))
  (let ((let29 (ff.mul let28 let27)))
  (let ((let30 (= let29 let24)))
  (let ((let31 h_n7_alt))
  (let ((let32 a_n10_alt))
  (let ((let33 (ff.mul let32 let31)))
  (let ((let34 (= let33 let28)))
  (let ((let35 j_n3_alt))
  (let ((let36 mul_n19_alt))
  (let ((let37 (ff.mul let36 let35)))
  (let ((let38 (= let37 let9)))
  (let ((let39 c_n6_alt))
  (let ((let40 mul_n18_alt))
  (let ((let41 (ff.mul let40 let39)))
  (let ((let42 (= let41 let36)))
  (let ((let43 b_n8_alt))
  (let ((let44 mul_n17_alt))
  (let ((let45 (ff.mul let44 let43)))
  (let ((let46 (= let45 let40)))
  (let ((let47 mul_n13_alt))
  (let ((let48 mul_n16_alt))
  (let ((let49 (ff.mul let48 let47)))
  (let ((let50 (= let49 let44)))
  (let ((let51 mul_n14_alt))
  (let ((let52 (ff.mul let51 let1)))
  (let ((let53 (ff.add let52 let0)))
  (let ((let54 mul_n15_alt))
  (let ((let55 (ff.mul let54 let1)))
  (let ((let56 (ff.add let55 let0)))
  (let ((let57 (ff.mul let56 let53)))
  (let ((let58 (= let57 let48)))
  (let ((let59 (ff.mul let35 let1)))
  (let ((let60 (ff.add let59 let0)))
  (let ((let61 d_n4_alt))
  (let ((let62 (ff.mul let61 let60)))
  (let ((let63 (= let62 let54)))
  (let ((let64 (ff.mul let61 let1)))
  (let ((let65 (ff.add let64 let0)))
  (let ((let66 (ff.mul let32 let65)))
  (let ((let67 (= let66 let51)))
  (let ((let68 mul_n12_alt))
  (let ((let69 (ff.mul let68 let43)))
  (let ((let70 (= let69 let47)))
  (let ((let71 f_n1_alt))
  (let ((let72 (ff.mul let71 let39)))
  (let ((let73 (= let72 let68)))
  (let ((let74 (ff.mul let27 let1)))
  (let ((let75 (ff.add let74 let0)))
  (let ((let76 (ff.mul let23 let75)))
  (let ((let77 (= let76 let5)))
  (let ((let78 (and let77 let73 let70 let67 let63 let58 let50 let46 let42 let38 let34 let30 let26 let22 let14 let8)))
  (let ((let79 return_n0))
  (let ((let80 (ff.mul let79 let1)))
  (let ((let81 (ff.add let80 let0)))
  (let ((let82 mul_n11))
  (let ((let83 mul_n25))
  (let ((let84 (ff.mul let83 let82)))
  (let ((let85 (= let84 let81)))
  (let ((let86 mul_n20))
  (let ((let87 (ff.mul let86 let1)))
  (let ((let88 (ff.add let87 let0)))
  (let ((let89 mul_n24))
  (let ((let90 (ff.mul let89 let88)))
  (let ((let91 (= let90 let83)))
  (let ((let92 mul_n23))
  (let ((let93 (ff.mul let92 let1)))
  (let ((let94 (ff.add let93 let0)))
  (let ((let95 g_n9))
  (let ((let96 (ff.mul let95 let1)))
  (let ((let97 (ff.add let96 let0)))
  (let ((let98 (ff.mul let97 let94)))
  (let ((let99 (= let98 let89)))
  (let ((let100 e_n2))
  (let ((let101 mul_n22))
  (let ((let102 (ff.mul let101 let100)))
  (let ((let103 (= let102 let92)))
  (let ((let104 i_n5))
  (let ((let105 mul_n21))
  (let ((let106 (ff.mul let105 let104)))
  (let ((let107 (= let106 let101)))
  (let ((let108 h_n7))
  (let ((let109 a_n10))
  (let ((let110 (ff.mul let109 let108)))
  (let ((let111 (= let110 let105)))
  (let ((let112 j_n3))
  (let ((let113 mul_n19))
  (let ((let114 (ff.mul let113 let112)))
  (let ((let115 (= let114 let86)))
  (let ((let116 c_n6))
  (let ((let117 mul_n18))
  (let ((let118 (ff.mul let117 let116)))
  (let ((let119 (= let118 let113)))
  (let ((let120 b_n8))
  (let ((let121 mul_n17))
  (let ((let122 (ff.mul let121 let120)))
  (let ((let123 (= let122 let117)))
  (let ((let124 mul_n13))
  (let ((let125 mul_n16))
  (let ((let126 (ff.mul let125 let124)))
  (let ((let127 (= let126 let121)))
  (let ((let128 mul_n14))
  (let ((let129 (ff.mul let128 let1)))
  (let ((let130 (ff.add let129 let0)))
  (let ((let131 mul_n15))
  (let ((let132 (ff.mul let131 let1)))
  (let ((let133 (ff.add let132 let0)))
  (let ((let134 (ff.mul let133 let130)))
  (let ((let135 (= let134 let125)))
  (let ((let136 (ff.mul let112 let1)))
  (let ((let137 (ff.add let136 let0)))
  (let ((let138 d_n4))
  (let ((let139 (ff.mul let138 let137)))
  (let ((let140 (= let139 let131)))
  (let ((let141 (ff.mul let138 let1)))
  (let ((let142 (ff.add let141 let0)))
  (let ((let143 (ff.mul let109 let142)))
  (let ((let144 (= let143 let128)))
  (let ((let145 mul_n12))
  (let ((let146 (ff.mul let145 let120)))
  (let ((let147 (= let146 let124)))
  (let ((let148 f_n1))
  (let ((let149 (ff.mul let148 let116)))
  (let ((let150 (= let149 let145)))
  (let ((let151 (ff.mul let104 let1)))
  (let ((let152 (ff.add let151 let0)))
  (let ((let153 (ff.mul let100 let152)))
  (let ((let154 (= let153 let82)))
  (let ((let155 (and let154 let150 let147 let144 let140 let135 let127 let123 let119 let115 let111 let107 let103 let99 let91 let85)))
  (let ((let156 (= let79 let2)))
  (let ((let157 (not let156)))
  (let ((let158 (= let104 let27)))
  (let ((let159 (= let120 let43)))
  (let ((let160 (= let112 let35)))
  (let ((let161 (= let116 let39)))
  (let ((let162 (= let100 let23)))
  (let ((let163 (= let109 let32)))
  (let ((let164 (= let138 let61)))
  (let ((let165 (= let95 let18)))
  (let ((let166 (= let148 let71)))
  (let ((let167 (= let108 let31)))
  (let ((let168 (and let167 let166 let165 let164 let163 let162 let161 let160 let159 let158)))
  (let ((let169 (and let168 let157 let155 let78)))
  let169
))))))))))))))))))))))))))))))))))))))))))))))))))))))))))))))))))))))))))))))))))))))))))))))))))))))))))))))))))))))))))))))))))))))))))))))))))))))))))))))))))))))))))
)
(check-sat)
